\ SCIP STATISTICS
\   Problem name     : model
\   Variables        : 212 (92 binary, 0 integer, 0 implicit integer, 120 continuous)
\   Constraints      : 188
Minimize
 Obj: +3089 p_0 +2039 p_1 +16 d_0_5 +18 d_2_5 +20 d_3_1 +13 d_4_5
Subject to
 c1: +1 z_0_0 +1 z_0_1 >= +1
 c2: +1 z_1_0 +1 z_1_1 >= +1
 c3: +1 z_2_0 +1 z_2_1 >= +1
 c4: +1 z_3_0 +1 z_3_1 >= +1
 c5: +1 z_4_0 +1 z_4_1 >= +1
 c6: +1 z_5_0 +1 z_5_1 >= +1
 c7: +1 z_0_0 -1 p_0 <= +0
 c8: +1 z_0_1 -1 p_1 <= +0
 c9: +1 z_1_0 -1 p_0 <= +0
 c10: +1 z_1_1 -1 p_1 <= +0
 c11: +1 z_2_0 -1 p_0 <= +0
 c12: +1 z_2_1 -1 p_1 <= +0
 c13: +1 z_3_0 -1 p_0 <= +0
 c14: +1 z_3_1 -1 p_1 <= +0
 c15: +1 z_4_0 -1 p_0 <= +0
 c16: +1 z_4_1 -1 p_1 <= +0
 c17: +1 z_5_0 -1 p_0 <= +0
 c18: +1 z_5_1 -1 p_1 <= +0
 c19: +1 d_0_5 -1 a_0_5 -1 b_0_5 = +0
 c20: +1 a_0_5 -1 x_0 +1 x_5 >= +0
 c21: +1 a_0_5 -1 x_5 +1 x_0 >= +0
 c22: +1 b_0_5 -1 y_0 +1 y_5 >= +0
 c23: +1 b_0_5 -1 y_5 +1 y_0 >= +0
 c24: +1 d_2_5 -1 a_2_5 -1 b_2_5 = +0
 c25: +1 a_2_5 -1 x_2 +1 x_5 >= +0
 c26: +1 a_2_5 -1 x_5 +1 x_2 >= +0
 c27: +1 b_2_5 -1 y_2 +1 y_5 >= +0
 c28: +1 b_2_5 -1 y_5 +1 y_2 >= +0
 c29: +1 d_3_1 -1 a_3_1 -1 b_3_1 = +0
 c30: +1 a_3_1 -1 x_3 +1 x_1 >= +0
 c31: +1 a_3_1 -1 x_1 +1 x_3 >= +0
 c32: +1 b_3_1 -1 y_3 +1 y_1 >= +0
 c33: +1 b_3_1 -1 y_1 +1 y_3 >= +0
 c34: +1 d_4_5 -1 a_4_5 -1 b_4_5 = +0
 c35: +1 a_4_5 -1 x_4 +1 x_5 >= +0
 c36: +1 a_4_5 -1 x_5 +1 x_4 >= +0
 c37: +1 b_4_5 -1 y_4 +1 y_5 >= +0
 c38: +1 b_4_5 -1 y_5 +1 y_4 >= +0
 c39: +1 l_0_1 +1 l_1_0 +1 m_0_1 +1 m_1_0 -1 z_0_0 -1 z_1_0 >= -1
 c40: +1 l_0_2 +1 l_2_0 +1 m_0_2 +1 m_2_0 -1 z_0_0 -1 z_2_0 >= -1
 c41: +1 l_1_2 +1 l_2_1 +1 m_1_2 +1 m_2_1 -1 z_1_0 -1 z_2_0 >= -1
 c42: +1 l_0_3 +1 l_3_0 +1 m_0_3 +1 m_3_0 -1 z_0_0 -1 z_3_0 >= -1
 c43: +1 l_1_3 +1 l_3_1 +1 m_1_3 +1 m_3_1 -1 z_1_0 -1 z_3_0 >= -1
 c44: +1 l_2_3 +1 l_3_2 +1 m_2_3 +1 m_3_2 -1 z_2_0 -1 z_3_0 >= -1
 c45: +1 l_0_4 +1 l_4_0 +1 m_0_4 +1 m_4_0 -1 z_0_0 -1 z_4_0 >= -1
 c46: +1 l_1_4 +1 l_4_1 +1 m_1_4 +1 m_4_1 -1 z_1_0 -1 z_4_0 >= -1
 c47: +1 l_2_4 +1 l_4_2 +1 m_2_4 +1 m_4_2 -1 z_2_0 -1 z_4_0 >= -1
 c48: +1 l_3_4 +1 l_4_3 +1 m_3_4 +1 m_4_3 -1 z_3_0 -1 z_4_0 >= -1
 c49: +1 l_0_5 +1 l_5_0 +1 m_0_5 +1 m_5_0 -1 z_0_0 -1 z_5_0 >= -1
 c50: +1 l_1_5 +1 l_5_1 +1 m_1_5 +1 m_5_1 -1 z_1_0 -1 z_5_0 >= -1
 c51: +1 l_2_5 +1 l_5_2 +1 m_2_5 +1 m_5_2 -1 z_2_0 -1 z_5_0 >= -1
 c52: +1 l_3_5 +1 l_5_3 +1 m_3_5 +1 m_5_3 -1 z_3_0 -1 z_5_0 >= -1
 c53: +1 l_4_5 +1 l_5_4 +1 m_4_5 +1 m_5_4 -1 z_4_0 -1 z_5_0 >= -1
 c54: +1 l_0_1 +1 l_1_0 +1 m_0_1 +1 m_1_0 -1 z_0_1 -1 z_1_1 >= -1
 c55: +1 l_0_2 +1 l_2_0 +1 m_0_2 +1 m_2_0 -1 z_0_1 -1 z_2_1 >= -1
 c56: +1 l_1_2 +1 l_2_1 +1 m_1_2 +1 m_2_1 -1 z_1_1 -1 z_2_1 >= -1
 c57: +1 l_0_3 +1 l_3_0 +1 m_0_3 +1 m_3_0 -1 z_0_1 -1 z_3_1 >= -1
 c58: +1 l_1_3 +1 l_3_1 +1 m_1_3 +1 m_3_1 -1 z_1_1 -1 z_3_1 >= -1
 c59: +1 l_2_3 +1 l_3_2 +1 m_2_3 +1 m_3_2 -1 z_2_1 -1 z_3_1 >= -1
 c60: +1 l_0_4 +1 l_4_0 +1 m_0_4 +1 m_4_0 -1 z_0_1 -1 z_4_1 >= -1
 c61: +1 l_1_4 +1 l_4_1 +1 m_1_4 +1 m_4_1 -1 z_1_1 -1 z_4_1 >= -1
 c62: +1 l_2_4 +1 l_4_2 +1 m_2_4 +1 m_4_2 -1 z_2_1 -1 z_4_1 >= -1
 c63: +1 l_3_4 +1 l_4_3 +1 m_3_4 +1 m_4_3 -1 z_3_1 -1 z_4_1 >= -1
 c64: +1 l_0_5 +1 l_5_0 +1 m_0_5 +1 m_5_0 -1 z_0_1 -1 z_5_1 >= -1
 c65: +1 l_1_5 +1 l_5_1 +1 m_1_5 +1 m_5_1 -1 z_1_1 -1 z_5_1 >= -1
 c66: +1 l_2_5 +1 l_5_2 +1 m_2_5 +1 m_5_2 -1 z_2_1 -1 z_5_1 >= -1
 c67: +1 l_3_5 +1 l_5_3 +1 m_3_5 +1 m_5_3 -1 z_3_1 -1 z_5_1 >= -1
 c68: +1 l_4_5 +1 l_5_4 +1 m_4_5 +1 m_5_4 -1 z_4_1 -1 z_5_1 >= -1
 c69: +1 r_0 +1000000 l_0_0 <= +999956
 c70: -1 r_0 +1000000 m_0_0 <= +999955
 c71: +1 x_1 -4.5 r_1 -1 x_0 +0.5 r_0 +1000000 l_1_0 <= +999957
 c72: +1 y_1 +4.5 r_1 -1 y_0 -0.5 r_0 +1000000 m_1_0 <= +999961
 c73: +1 x_2 -6.5 r_2 -1 x_0 +0.5 r_0 +1000000 l_2_0 <= +999953
 c74: +1 y_2 +6.5 r_2 -1 y_0 -0.5 r_0 +1000000 m_2_0 <= +999959
 c75: +1 x_3 -6.5 r_3 -1 x_0 +0.5 r_0 +1000000 l_3_0 <= +999943.5
 c76: +1 y_3 +6.5 r_3 -1 y_0 -0.5 r_0 +1000000 m_3_0 <= +999949.5
 c77: +1 x_4 +2 r_4 -1 x_0 +0.5 r_0 +1000000 l_4_0 <= +999952
 c78: +1 y_4 -2 r_4 -1 y_0 -0.5 r_0 +1000000 m_4_0 <= +999949.5
 c79: +1 x_5 +2 r_5 -1 x_0 +0.5 r_0 +1000000 l_5_0 <= +999955.5
 c80: +1 y_5 -2 r_5 -1 y_0 -0.5 r_0 +1000000 m_5_0 <= +999953
 c81: +1 x_0 +0.5 r_0 -1 x_1 -4.5 r_1 +1000000 l_0_1 <= +999957
 c82: +1 y_0 -0.5 r_0 -1 y_1 +4.5 r_1 +1000000 m_0_1 <= +999961
 c83: -9 r_1 +1000000 l_1_1 <= +999958
 c84: +9 r_1 +1000000 m_1_1 <= +999967
 c85: +1 x_2 -6.5 r_2 -1 x_1 -4.5 r_1 +1000000 l_2_1 <= +999954
 c86: +1 y_2 +6.5 r_2 -1 y_1 +4.5 r_1 +1000000 m_2_1 <= +999965
 c87: +1 x_3 -6.5 r_3 -1 x_1 -4.5 r_1 +1000000 l_3_1 <= +999944.5
 c88: +1 y_3 +6.5 r_3 -1 y_1 +4.5 r_1 +1000000 m_3_1 <= +999955.5
 c89: +1 x_4 +2 r_4 -1 x_1 -4.5 r_1 +1000000 l_4_1 <= +999953
 c90: +1 y_4 -2 r_4 -1 y_1 +4.5 r_1 +1000000 m_4_1 <= +999955.5
 c91: +1 x_5 +2 r_5 -1 x_1 -4.5 r_1 +1000000 l_5_1 <= +999956.5
 c92: +1 y_5 -2 r_5 -1 y_1 +4.5 r_1 +1000000 m_5_1 <= +999959
 c93: +1 x_0 +0.5 r_0 -1 x_2 -6.5 r_2 +1000000 l_0_2 <= +999953
 c94: +1 y_0 -0.5 r_0 -1 y_2 +6.5 r_2 +1000000 m_0_2 <= +999959
 c95: +1 x_1 -4.5 r_1 -1 x_2 -6.5 r_2 +1000000 l_1_2 <= +999954
 c96: +1 y_1 +4.5 r_1 -1 y_2 +6.5 r_2 +1000000 m_1_2 <= +999965
 c97: -13 r_2 +1000000 l_2_2 <= +999950
 c98: +13 r_2 +1000000 m_2_2 <= +999963
 c99: +1 x_3 -6.5 r_3 -1 x_2 -6.5 r_2 +1000000 l_3_2 <= +999940.5
 c100: +1 y_3 +6.5 r_3 -1 y_2 +6.5 r_2 +1000000 m_3_2 <= +999953.5
 c101: +1 x_4 +2 r_4 -1 x_2 -6.5 r_2 +1000000 l_4_2 <= +999949
 c102: +1 y_4 -2 r_4 -1 y_2 +6.5 r_2 +1000000 m_4_2 <= +999953.5
 c103: +1 x_5 +2 r_5 -1 x_2 -6.5 r_2 +1000000 l_5_2 <= +999952.5
 c104: +1 y_5 -2 r_5 -1 y_2 +6.5 r_2 +1000000 m_5_2 <= +999957
 c105: +1 x_0 +0.5 r_0 -1 x_3 -6.5 r_3 +1000000 l_0_3 <= +999943.5
 c106: +1 y_0 -0.5 r_0 -1 y_3 +6.5 r_3 +1000000 m_0_3 <= +999949.5
 c107: +1 x_1 -4.5 r_1 -1 x_3 -6.5 r_3 +1000000 l_1_3 <= +999944.5
 c108: +1 y_1 +4.5 r_1 -1 y_3 +6.5 r_3 +1000000 m_1_3 <= +999955.5
 c109: +1 x_2 -6.5 r_2 -1 x_3 -6.5 r_3 +1000000 l_2_3 <= +999940.5
 c110: +1 y_2 +6.5 r_2 -1 y_3 +6.5 r_3 +1000000 m_2_3 <= +999953.5
 c111: -13 r_3 +1000000 l_3_3 <= +999931
 c112: +13 r_3 +1000000 m_3_3 <= +999944
 c113: +1 x_4 +2 r_4 -1 x_3 -6.5 r_3 +1000000 l_4_3 <= +999939.5
 c114: +1 y_4 -2 r_4 -1 y_3 +6.5 r_3 +1000000 m_4_3 <= +999944
 c115: +1 x_5 +2 r_5 -1 x_3 -6.5 r_3 +1000000 l_5_3 <= +999943
 c116: +1 y_5 -2 r_5 -1 y_3 +6.5 r_3 +1000000 m_5_3 <= +999947.5
 c117: +1 x_0 +0.5 r_0 -1 x_4 +2 r_4 +1000000 l_0_4 <= +999952
 c118: +1 y_0 -0.5 r_0 -1 y_4 -2 r_4 +1000000 m_0_4 <= +999949.5
 c119: +1 x_1 -4.5 r_1 -1 x_4 +2 r_4 +1000000 l_1_4 <= +999953
 c120: +1 y_1 +4.5 r_1 -1 y_4 -2 r_4 +1000000 m_1_4 <= +999955.5
 c121: +1 x_2 -6.5 r_2 -1 x_4 +2 r_4 +1000000 l_2_4 <= +999949
 c122: +1 y_2 +6.5 r_2 -1 y_4 -2 r_4 +1000000 m_2_4 <= +999953.5
 c123: +1 x_3 -6.5 r_3 -1 x_4 +2 r_4 +1000000 l_3_4 <= +999939.5
 c124: +1 y_3 +6.5 r_3 -1 y_4 -2 r_4 +1000000 m_3_4 <= +999944
 c125: +4 r_4 +1000000 l_4_4 <= +999948
 c126: -4 r_4 +1000000 m_4_4 <= +999944
 c127: +1 x_5 +2 r_5 -1 x_4 +2 r_4 +1000000 l_5_4 <= +999951.5
 c128: +1 y_5 -2 r_5 -1 y_4 -2 r_4 +1000000 m_5_4 <= +999947.5
 c129: +1 x_0 +0.5 r_0 -1 x_5 +2 r_5 +1000000 l_0_5 <= +999955.5
 c130: +1 y_0 -0.5 r_0 -1 y_5 -2 r_5 +1000000 m_0_5 <= +999953
 c131: +1 x_1 -4.5 r_1 -1 x_5 +2 r_5 +1000000 l_1_5 <= +999956.5
 c132: +1 y_1 +4.5 r_1 -1 y_5 -2 r_5 +1000000 m_1_5 <= +999959
 c133: +1 x_2 -6.5 r_2 -1 x_5 +2 r_5 +1000000 l_2_5 <= +999952.5
 c134: +1 y_2 +6.5 r_2 -1 y_5 -2 r_5 +1000000 m_2_5 <= +999957
 c135: +1 x_3 -6.5 r_3 -1 x_5 +2 r_5 +1000000 l_3_5 <= +999943
 c136: +1 y_3 +6.5 r_3 -1 y_5 -2 r_5 +1000000 m_3_5 <= +999947.5
 c137: +1 x_4 +2 r_4 -1 x_5 +2 r_5 +1000000 l_4_5 <= +999951.5
 c138: +1 y_4 -2 r_4 -1 y_5 -2 r_5 +1000000 m_4_5 <= +999947.5
 c139: +4 r_5 +1000000 l_5_5 <= +999955
 c140: -4 r_5 +1000000 m_5_5 <= +999951
 c141: +1 x_0 +0.5 r_0 +1000000 z_0_0 <= +1000146
 c142: +1 x_0 -0.5 r_0 -1000000 z_0_0 >= -999978
 c143: +1 y_0 -0.5 r_0 +1000000 z_0_0 <= +1000253.5
 c144: +1 y_0 +0.5 r_0 -1000000 z_0_0 >= -999878.5
 c145: +1 x_1 -4.5 r_1 +1000000 z_1_0 <= +1000147
 c146: +1 x_1 +4.5 r_1 -1000000 z_1_0 >= -999979
 c147: +1 y_1 +4.5 r_1 +1000000 z_1_0 <= +1000259.5
 c148: +1 y_1 -4.5 r_1 -1000000 z_1_0 >= -999884.5
 c149: +1 x_2 -6.5 r_2 +1000000 z_2_0 <= +1000143
 c150: +1 x_2 +6.5 r_2 -1000000 z_2_0 >= -999975
 c151: +1 y_2 +6.5 r_2 +1000000 z_2_0 <= +1000257.5
 c152: +1 y_2 -6.5 r_2 -1000000 z_2_0 >= -999882.5
 c153: +1 x_3 -6.5 r_3 +1000000 z_3_0 <= +1000133.5
 c154: +1 x_3 +6.5 r_3 -1000000 z_3_0 >= -999965.5
 c155: +1 y_3 +6.5 r_3 +1000000 z_3_0 <= +1000248
 c156: +1 y_3 -6.5 r_3 -1000000 z_3_0 >= -999873
 c157: +1 x_4 +2 r_4 +1000000 z_4_0 <= +1000142
 c158: +1 x_4 -2 r_4 -1000000 z_4_0 >= -999974
 c159: +1 y_4 -2 r_4 +1000000 z_4_0 <= +1000248
 c160: +1 y_4 +2 r_4 -1000000 z_4_0 >= -999873
 c161: +1 x_5 +2 r_5 +1000000 z_5_0 <= +1000145.5
 c162: +1 x_5 -2 r_5 -1000000 z_5_0 >= -999977.5
 c163: +1 y_5 -2 r_5 +1000000 z_5_0 <= +1000251.5
 c164: +1 y_5 +2 r_5 -1000000 z_5_0 >= -999876.5
 c165: +1 x_0 +0.5 r_0 +1000000 z_0_1 <= +1000373
 c166: +1 x_0 -0.5 r_0 -1000000 z_0_1 >= -999695
 c167: +1 y_0 -0.5 r_0 +1000000 z_0_1 <= +1000180.5
 c168: +1 y_0 +0.5 r_0 -1000000 z_0_1 >= -999957.5
 c169: +1 x_1 -4.5 r_1 +1000000 z_1_1 <= +1000374
 c170: +1 x_1 +4.5 r_1 -1000000 z_1_1 >= -999696
 c171: +1 y_1 +4.5 r_1 +1000000 z_1_1 <= +1000186.5
 c172: +1 y_1 -4.5 r_1 -1000000 z_1_1 >= -999963.5
 c173: +1 x_2 -6.5 r_2 +1000000 z_2_1 <= +1000370
 c174: +1 x_2 +6.5 r_2 -1000000 z_2_1 >= -999692
 c175: +1 y_2 +6.5 r_2 +1000000 z_2_1 <= +1000184.5
 c176: +1 y_2 -6.5 r_2 -1000000 z_2_1 >= -999961.5
 c177: +1 x_3 -6.5 r_3 +1000000 z_3_1 <= +1000360.5
 c178: +1 x_3 +6.5 r_3 -1000000 z_3_1 >= -999682.5
 c179: +1 y_3 +6.5 r_3 +1000000 z_3_1 <= +1000175
 c180: +1 y_3 -6.5 r_3 -1000000 z_3_1 >= -999952
 c181: +1 x_4 +2 r_4 +1000000 z_4_1 <= +1000369
 c182: +1 x_4 -2 r_4 -1000000 z_4_1 >= -999691
 c183: +1 y_4 -2 r_4 +1000000 z_4_1 <= +1000175
 c184: +1 y_4 +2 r_4 -1000000 z_4_1 >= -999952
 c185: +1 x_5 +2 r_5 +1000000 z_5_1 <= +1000372.5
 c186: +1 x_5 -2 r_5 -1000000 z_5_1 >= -999694.5
 c187: +1 y_5 -2 r_5 +1000000 z_5_1 <= +1000178.5
 c188: +1 y_5 +2 r_5 -1000000 z_5_1 >= -999955.5
Bounds
 0 <= p_0 <= 1
 0 <= p_1 <= 1
 0 <= r_0 <= 1
 0 <= r_1 <= 1
 0 <= r_2 <= 1
 0 <= r_3 <= 1
 0 <= r_4 <= 1
 0 <= r_5 <= 1
 0 <= z_0_0 <= 1
 0 <= z_0_1 <= 1
 0 <= z_1_0 <= 1
 0 <= z_1_1 <= 1
 0 <= z_2_0 <= 1
 0 <= z_2_1 <= 1
 0 <= z_3_0 <= 1
 0 <= z_3_1 <= 1
 0 <= z_4_0 <= 1
 0 <= z_4_1 <= 1
 0 <= z_5_0 <= 1
 0 <= z_5_1 <= 1
 0 <= l_0_0 <= 1
 0 <= l_0_1 <= 1
 0 <= l_0_2 <= 1
 0 <= l_0_3 <= 1
 0 <= l_0_4 <= 1
 0 <= l_0_5 <= 1
 0 <= l_1_0 <= 1
 0 <= l_1_1 <= 1
 0 <= l_1_2 <= 1
 0 <= l_1_3 <= 1
 0 <= l_1_4 <= 1
 0 <= l_1_5 <= 1
 0 <= l_2_0 <= 1
 0 <= l_2_1 <= 1
 0 <= l_2_2 <= 1
 0 <= l_2_3 <= 1
 0 <= l_2_4 <= 1
 0 <= l_2_5 <= 1
 0 <= l_3_0 <= 1
 0 <= l_3_1 <= 1
 0 <= l_3_2 <= 1
 0 <= l_3_3 <= 1
 0 <= l_3_4 <= 1
 0 <= l_3_5 <= 1
 0 <= l_4_0 <= 1
 0 <= l_4_1 <= 1
 0 <= l_4_2 <= 1
 0 <= l_4_3 <= 1
 0 <= l_4_4 <= 1
 0 <= l_4_5 <= 1
 0 <= l_5_0 <= 1
 0 <= l_5_1 <= 1
 0 <= l_5_2 <= 1
 0 <= l_5_3 <= 1
 0 <= l_5_4 <= 1
 0 <= l_5_5 <= 1
 0 <= m_0_0 <= 1
 0 <= m_0_1 <= 1
 0 <= m_0_2 <= 1
 0 <= m_0_3 <= 1
 0 <= m_0_4 <= 1
 0 <= m_0_5 <= 1
 0 <= m_1_0 <= 1
 0 <= m_1_1 <= 1
 0 <= m_1_2 <= 1
 0 <= m_1_3 <= 1
 0 <= m_1_4 <= 1
 0 <= m_1_5 <= 1
 0 <= m_2_0 <= 1
 0 <= m_2_1 <= 1
 0 <= m_2_2 <= 1
 0 <= m_2_3 <= 1
 0 <= m_2_4 <= 1
 0 <= m_2_5 <= 1
 0 <= m_3_0 <= 1
 0 <= m_3_1 <= 1
 0 <= m_3_2 <= 1
 0 <= m_3_3 <= 1
 0 <= m_3_4 <= 1
 0 <= m_3_5 <= 1
 0 <= m_4_0 <= 1
 0 <= m_4_1 <= 1
 0 <= m_4_2 <= 1
 0 <= m_4_3 <= 1
 0 <= m_4_4 <= 1
 0 <= m_4_5 <= 1
 0 <= m_5_0 <= 1
 0 <= m_5_1 <= 1
 0 <= m_5_2 <= 1
 0 <= m_5_3 <= 1
 0 <= m_5_4 <= 1
 0 <= m_5_5 <= 1
Binaries
 p_0 p_1 r_0 r_1 r_2 r_3 r_4 r_5 z_0_0 z_0_1 z_1_0 z_1_1 z_2_0 z_2_1 z_3_0 z_3_1 z_4_0 z_4_1 z_5_0 z_5_1
 l_0_0 l_0_1 l_0_2 l_0_3 l_0_4 l_0_5 l_1_0 l_1_1 l_1_2 l_1_3 l_1_4 l_1_5 l_2_0 l_2_1 l_2_2 l_2_3 l_2_4
 l_2_5 l_3_0 l_3_1 l_3_2 l_3_3 l_3_4 l_3_5 l_4_0 l_4_1 l_4_2 l_4_3 l_4_4 l_4_5 l_5_0 l_5_1 l_5_2 l_5_3
 l_5_4 l_5_5 m_0_0 m_0_1 m_0_2 m_0_3 m_0_4 m_0_5 m_1_0 m_1_1 m_1_2 m_1_3 m_1_4 m_1_5 m_2_0 m_2_1 m_2_2
 m_2_3 m_2_4 m_2_5 m_3_0 m_3_1 m_3_2 m_3_3 m_3_4 m_3_5 m_4_0 m_4_1 m_4_2 m_4_3 m_4_4 m_4_5 m_5_0 m_5_1
 m_5_2 m_5_3 m_5_4 m_5_5
End
